benchmarks/bfuzz0/1266426847185012708215550122372501210882.smt2
(set-logic QF_FP)
(declare-const x0 (_ FloatingPoint 11 53))
(declare-const x1 (_ FloatingPoint 11 53))
(declare-const x2 (_ FloatingPoint 11 53))
(declare-const x3 (_ FloatingPoint 11 53))
(declare-const x4 (_ FloatingPoint 11 53))
(declare-const x5 (_ FloatingPoint 11 53))
(declare-const x6 (_ FloatingPoint 11 53))
(assert (fp.geq (fp.add RNE x0 x6) (fp.sub RNE x2 x3)))
(assert (fp.geq (fp.sub RNE x1 x6) (fp.sub RNE x0 x0)))
(assert (fp.geq (fp.mul RNE x2 x3) (fp.neg x2)))
(assert (fp.eq (fp.sub RNE x6 x6) (fp.neg x0)))
(assert (fp.eq (fp.neg x0) (fp.add RNE x1 x2)))
(assert (fp.lt (fp.div RNE x1 x3) (fp.mul RNE x6 x6)))
(assert (fp.lt (fp.mul RNE x5 x1) (fp.div RNE x2 x0)))
(check-sat)
