db/data/1266426847185012708215550122372501210882.z3.out
sat
-------------------
175.559467976
